NAME : rat99.tsp
COMMENT : Optimal tour for rat99.tsp
TYPE : TOUR
DIMENSION : 99
Total Length: 1291.886456225492
TOUR_SECTION
1
2
3
4
14
5
6
7
8
9
18
17
25
24
16
15
23
22
21
31
30
29
38
48
39
40
41
32
33
42
43
34
35
26
27
36
44
45
54
53
52
51
50
60
61
62
63
72
81
80
71
70
69
78
77
86
87
88
79
89
90
99
98
97
96
95
94
93
92
91
83
82
73
84
85
76
75
74
64
65
66
67
68
59
58
49
57
56
55
47
46
37
28
19
20
13
12
11
10
-1
EOF
